29 33
90 66
31 79
11 91
38 81
99 54
82 21
93 30
46 38
76 40
63 118
94 44
38 35
17 42
36 77
76 84
52 106
19 69
107 31
87 66
45 82
94 113
96 94
51 79
28 54
75 131
104 115
51 112
30 66
65 169
1 164
99 171
78 152
85 161
96 117
61 133
92 122
89 133
32 165
99 151
60 149
50 177
58 170
20 146
59 151
77 136
102 179
101 169
85 107
60 199
22 181
72 139
50 140
5 169
94 164
19 136
81 165
106 147
45 137
23 156
42 161
63 160
5 212
88 184
8 153
29 180
105 246
85 231
55 192
67 273
7 274
15 241
61 238
95 232
98 197
105 247
19 201
72 203
101 266
78 246
100 216
25 249
50 227
35 243
67 234
71 260
80 271
40 242
73 242
32 239
50 252
88 308
91 279
10 243
26 320
86 282
41 312
84 295
42 284
65 261
